c Command line: hgen8 155 30
p cnf 155 243
74 30 155 92 0
116 56 130 42 0
120 10 105 8 0
128 85 154 71 0
80 12 50 113 0
73 72 81 29 0
88 153 142 39 0
68 5 16 100 0
54 112 150 143 0
118 131 138 98 0
91 3 146 89 0
37 134 114 45 0
108 78 101 32 0
126 135 19 107 0
99 25 6 79 0
147 58 28 36 0
141 121 57 96 0
22 86 43 31 0
82 127 75 26 0
40 21 65 148 0
110 95 106 90 0
151 145 123 122 0
17 93 77 11 0
109 149 61 46 0
117 119 52 87 0
104 133 140 67 0
38 27 23 139 0
97 94 55 1 0
48 103 34 33 0
84 14 132 111 0
51 144 4 9 0
7 49 64 63 0
-1 -3 0
-1 -4 0
-1 -5 0
-3 -4 0
-3 -5 0
-4 -5 0
-6 -7 0
-6 -8 0
-6 -9 0
-6 -10 0
-7 -8 0
-7 -9 0
-7 -10 0
-8 -9 0
-8 -10 0
-9 -10 0
-11 -12 0
-11 -14 0
-12 -14 0
-16 -17 0
-16 -19 0
-17 -19 0
-21 -22 0
-21 -23 0
-21 -25 0
-22 -23 0
-22 -25 0
-23 -25 0
-26 -27 0
-26 -28 0
-26 -29 0
-26 -30 0
-27 -28 0
-27 -29 0
-27 -30 0
-28 -29 0
-28 -30 0
-29 -30 0
-31 -32 0
-31 -33 0
-31 -34 0
-32 -33 0
-32 -34 0
-33 -34 0
-36 -37 0
-36 -38 0
-36 -39 0
-36 -40 0
-37 -38 0
-37 -39 0
-37 -40 0
-38 -39 0
-38 -40 0
-39 -40 0
-42 -43 0
-42 -45 0
-43 -45 0
-46 -48 0
-46 -49 0
-46 -50 0
-48 -49 0
-48 -50 0
-49 -50 0
-51 -52 0
-51 -54 0
-51 -55 0
-52 -54 0
-52 -55 0
-54 -55 0
-56 -57 0
-56 -58 0
-57 -58 0
-61 -63 0
-61 -64 0
-61 -65 0
-63 -64 0
-63 -65 0
-64 -65 0
-67 -68 0
-71 -72 0
-71 -73 0
-71 -74 0
-71 -75 0
-72 -73 0
-72 -74 0
-72 -75 0
-73 -74 0
-73 -75 0
-74 -75 0
-77 -78 0
-77 -79 0
-77 -80 0
-78 -79 0
-78 -80 0
-79 -80 0
-81 -82 0
-81 -84 0
-81 -85 0
-82 -84 0
-82 -85 0
-84 -85 0
-86 -87 0
-86 -88 0
-86 -89 0
-86 -90 0
-87 -88 0
-87 -89 0
-87 -90 0
-88 -89 0
-88 -90 0
-89 -90 0
-91 -92 0
-91 -93 0
-91 -94 0
-91 -95 0
-92 -93 0
-92 -94 0
-92 -95 0
-93 -94 0
-93 -95 0
-94 -95 0
-96 -97 0
-96 -98 0
-96 -99 0
-96 -100 0
-97 -98 0
-97 -99 0
-97 -100 0
-98 -99 0
-98 -100 0
-99 -100 0
-101 -103 0
-101 -104 0
-101 -105 0
-103 -104 0
-103 -105 0
-104 -105 0
-106 -107 0
-106 -108 0
-106 -109 0
-106 -110 0
-107 -108 0
-107 -109 0
-107 -110 0
-108 -109 0
-108 -110 0
-109 -110 0
-111 -112 0
-111 -113 0
-111 -114 0
-112 -113 0
-112 -114 0
-113 -114 0
-116 -117 0
-116 -118 0
-116 -119 0
-116 -120 0
-117 -118 0
-117 -119 0
-117 -120 0
-118 -119 0
-118 -120 0
-119 -120 0
-121 -122 0
-121 -123 0
-122 -123 0
-126 -127 0
-126 -128 0
-126 -130 0
-127 -128 0
-127 -130 0
-128 -130 0
-131 -132 0
-131 -133 0
-131 -134 0
-131 -135 0
-132 -133 0
-132 -134 0
-132 -135 0
-133 -134 0
-133 -135 0
-134 -135 0
-138 -139 0
-138 -140 0
-139 -140 0
-141 -142 0
-141 -143 0
-141 -144 0
-141 -145 0
-142 -143 0
-142 -144 0
-142 -145 0
-143 -144 0
-143 -145 0
-144 -145 0
-146 -147 0
-146 -148 0
-146 -149 0
-146 -150 0
-147 -148 0
-147 -149 0
-147 -150 0
-148 -149 0
-148 -150 0
-149 -150 0
-151 -153 0
-151 -154 0
-151 -155 0
-153 -154 0
-153 -155 0
-154 -155 0
